
--- Job bchfcnet.gms Start 02/09/22 15:13:40 34.3.0 rac355f3 WEX-WEI x86 64bit/MS Windows
--- Applying:
    C:\GAMS\34\gmsprmNT.txt
--- GAMS Parameters defined
    Input C:\Users\dekhi\Desktop\gamsworld\FCNetLib\test\bchfcnet.gms
    PageSize 0
    ScrDir C:\Users\dekhi\Desktop\gamsworld\FCNetLib\test\225a\
    SysDir C:\GAMS\34\
    LogOption 3
    ErrMsg 1
    ErrorLog 99
    IDE 1
    ResLim 3600
    LstTitleLeftAligned 1
Licensee: Eval License                                   S211214|0002AW-GEN
          Ostfalia Hochschule fuer angewandte Wissenschaften        DCE1645
          C:\Users\dekhi\Documents\GAMS\gamslice.txt
          License Admin: Mohamed Ali Dekhil, dekhil.medali@gmail.com       
          Evaluation license: Not for commercial or production use
GAMS 34.3.0   Copyright (C) 1987-2021 GAMS Development. All rights reserved
--- Starting compilation
--- bchfcnet.gms(34) 2 Mb
--- . decl.gms(15) 2 Mb
--- bchfcnet.gms(38) 2 Mb
--- . sp80x160.inc(356) 3 Mb
--- bchfcnet.gms(67) 3 Mb
--- . equs.gms(20) 3 Mb
--- bchfcnet.gms(97) 3 Mb
--- call rm -f bchout_i.gdx startcut.txt startheur.txt cuthist.gdx agap.txt rgap.txt cntfail.txt
--- bchfcnet.gms(118) 3 Mb
--- Starting execution: elapsed 0:00:00.086
--- bchfcnet.gms(414) 4 Mb
--- GDX File (execute_unload) C:\Users\dekhi\Desktop\gamsworld\FCNetLib\test\net.gdx
--- bchfcnet.gms(505) 4 Mb
--- GDXin=C:\Users\dekhi\Desktop\gamsworld\FCNetLib\test\points\sp80x160.gdx
--- GDX File (execute_load) C:\Users\dekhi\Desktop\gamsworld\FCNetLib\test\points\sp80x160.gdx
--- Generating MIP model master
--- bchfcnet.gms(509) 4 Mb
---   241 rows  321 columns  961 non-zeroes
---   160 discrete-columns
--- Executing CPLEX (Solvelink=2): elapsed 0:00:00.101

IBM ILOG CPLEX   34.3.0 rac355f3 Released Feb 25, 2021 WEI x86 64bit/MS Window

--- GAMS/Cplex Link licensed for continuous and discrete problems.

Reading parameter(s) from "C:\Users\dekhi\Desktop\gamsworld\FCNetLib\test\cplex.op2"
>>  mipstart 1
Finished reading from "C:\Users\dekhi\Desktop\gamsworld\FCNetLib\test\cplex.op2"

--- Space for names approximately 0.01 Mb
--- Use option 'names no' to turn use of names off
--- GMO memory 0.56 Mb (peak 0.57 Mb)
--- Dictionary memory 0.00 Mb
--- Cplex 20.1.0.0 link memory 0.01 Mb (peak 0.04 Mb)
--- Starting Cplex

Version identifier: 20.1.0.0 | 2020-11-10 | 9bedb6d68
CPXPARAM_Threads                                 1
CPXPARAM_MIP_Display                             4
CPXPARAM_TimeLimit                               3600
CPXPARAM_MIP_Tolerances_AbsMIPGap                0
CPXPARAM_MIP_Tolerances_MIPGap                   0
Generic callback                                 0x50
Processing 1 MIP starts.
MIP start 'm1' defined solution with objective 19549.0000.
1 of 1 MIP starts provided solutions.
MIP start 'm1' defined initial solution with objective 19549.0000.
Tried aggregator 3 times.
MIP Presolve eliminated 88 rows and 86 columns.
MIP Presolve modified 91 coefficients.
Aggregator did 34 substitutions.
Reduced MIP has 118 rows, 177 columns, and 359 nonzeros.
Reduced MIP has 90 binaries, 0 generals, 0 SOSs, and 0 indicators.
Presolve time = 0.00 sec. (0.95 ticks)
Probing time = 0.00 sec. (0.03 ticks)
Tried aggregator 1 time.
Detecting symmetries...
Reduced MIP has 118 rows, 177 columns, and 359 nonzeros.
Reduced MIP has 90 binaries, 0 generals, 0 SOSs, and 0 indicators.
Presolve time = 0.02 sec. (0.30 ticks)
Probing time = 0.00 sec. (0.03 ticks)
Clique table members: 4.
MIP emphasis: balance optimality and feasibility.
MIP search method: dynamic search.
Parallel mode: none, using 1 thread.
Tried aggregator 1 time.
LP Presolve eliminated 85 rows and 120 columns.
Aggregator did 14 substitutions.
Reduced LP has 19 rows, 43 columns, and 86 nonzeros.
Presolve time = 0.00 sec. (0.10 ticks)
Initializing dual steep norms . . .

Iteration log . . .
Iteration:     1   Dual objective     =          8302.049641
Initializing dual steep norms . . .
Root relaxation solution time = 0.00 sec. (0.19 ticks)

        Nodes                                         Cuts/
   Node  Left     Objective  IInf  Best Integer    Best Bound    ItCnt     Gap

*     0+    0                        19549.0000     5610.0000            71.30%
Found incumbent of value 19549.000000 after 0.02 sec. (1.80 ticks)
      0     0    14906.8846    16    19549.0000    14906.8846       17   23.75%
      0     0    18214.8642    10    19549.0000      Cuts: 49       36    6.82%
*     0     0      integral     0    19548.9991      Cuts: 39       45    0.00%
Found incumbent of value 19548.999115 after 0.02 sec. (5.34 ticks)
      0     0        cutoff          19548.9991    19548.9991       45    0.00%
Elapsed time = 0.02 sec. (5.34 ticks, tree = 0.01 MB, solutions = 2)

Cover cuts applied:  7
Implied bound cuts applied:  5
Flow cuts applied:  14
Mixed integer rounding cuts applied:  2
Flow path cuts applied:  3
Multi commodity flow cuts applied:  8
Gomory fractional cuts applied:  25

Root node processing (before b&c):
  Real time             =    0.02 sec. (5.35 ticks)
Sequential b&c:
  Real time             =    0.00 sec. (0.00 ticks)
                          ------------
Total (root+branch&cut) =    0.02 sec. (5.35 ticks)

--- MIP status (101): integer optimal solution.
--- Cplex Time: 0.02sec (det. 5.35 ticks)

--- Fixing integer variables and solving final LP...

Version identifier: 20.1.0.0 | 2020-11-10 | 9bedb6d68
CPXPARAM_Advance                                 2
CPXPARAM_Threads                                 1
CPXPARAM_MIP_Display                             4
CPXPARAM_TimeLimit                               3600
CPXPARAM_MIP_Tolerances_AbsMIPGap                0
CPXPARAM_MIP_Tolerances_MIPGap                   0
Tried aggregator 1 time.
LP Presolve eliminated 240 rows and 321 columns.
All rows and columns eliminated.
Presolve time = 0.00 sec. (0.12 ticks)

--- Fixed MIP status (1): optimal.
--- Cplex Time: 0.00sec (det. 0.21 ticks)


Proven optimal solution
MIP Solution:        19548.999115    (45 iterations, 0 nodes)
Final Solve:         19548.999115    (0 iterations)

Best possible:       19548.999115
Absolute gap:            0.000000
Relative gap:            0.000000

--- Reading solution for model master
*** Status: Normal completion
--- Job bchfcnet.gms Stop 02/09/22 15:13:40 elapsed 0:00:00.160
